(set-logic QF_S)
(declare-fun var0 () String)
(declare-fun var1 () String)
(declare-fun var2 () String)
(declare-fun var3 () String)
(declare-fun var4 () String)
(declare-fun var5 () String)
(declare-fun var6 () String)
(declare-fun var7 () String)
(declare-fun var8 () String)
(declare-fun var9 () String)
(declare-fun var10 () String)
(declare-fun var11 () String)
(declare-fun var12 () String)
(declare-fun var13 () String)
(declare-fun var14 () String)
(declare-fun var15 () String)
(declare-fun var16 () String)
(declare-fun var17 () String)
(declare-fun var18 () String)
(declare-fun var19 () String)
(declare-fun var20 () String)
(declare-fun var21 () String)
(declare-fun var22 () String)
(declare-fun var23 () String)
(declare-fun var24 () String)
(declare-fun var25 () String)
(declare-fun var26 () String)
(declare-fun var27 () String)
(declare-fun var28 () String)
(declare-fun var29 () String)
(declare-fun var30 () String)
(declare-fun var31 () String)
(declare-fun var32 () String)
(declare-fun var33 () String)
(declare-fun var34 () String)
(declare-fun var35 () String)
(declare-fun var36 () String)
(declare-fun var37 () String)
(declare-fun var38 () String)
(declare-fun var39 () String)
(declare-fun var40 () String)
(declare-fun var41 () String)
(declare-fun var42 () String)
(declare-fun var43 () String)
(declare-fun var44 () String)
(declare-fun var45 () String)
(declare-fun var46 () String)
(declare-fun var47 () String)
(declare-fun var48 () String)
(declare-fun var49 () String)
(declare-fun var50 () String)
(declare-fun var51 () String)
(declare-fun var52 () String)
(declare-fun var53 () String)
(declare-fun var54 () String)
(declare-fun var55 () String)
(declare-fun var56 () String)
(declare-fun var57 () String)
(declare-fun var58 () String)
(declare-fun var59 () String)
(declare-fun var60 () String)
(assert (= var0 (Concat var1 var2)))
(assert (= var2 (Concat var3 var4)))
(assert (= var4 (Concat var5 var6)))
(assert (= var6 (Concat var7 var8)))
(assert (= var8 (Concat var9 var10)))
(assert (= var10 (Concat var11 var12)))
(assert (= var12 (Concat var13 var14)))
(assert (= var14 (Concat var15 var16)))
(assert (= var16 (Concat var17 var18)))
(assert (= var18 (Concat var19 var20)))
(assert (= var20 (Concat var21 var22)))
(assert (= var22 (Concat var23 var24)))
(assert (= var24 (Concat var25 var26)))
(assert (= var26 (Concat var27 var28)))
(assert (= var28 (Concat var29 var30)))
(assert (= var30 (Concat var31 var32)))
(assert (= var32 (Concat var33 var34)))
(assert (= var34 (Concat var35 var36)))
(assert (= var36 (Concat var37 var38)))
(assert (= var38 (Concat var39 var40)))
(assert (= var40 (Concat var41 var42)))
(assert (= var42 (Concat var43 var44)))
(assert (= var44 (Concat var45 var46)))
(assert (= var46 (Concat var47 var48)))
(assert (= var48 (Concat var49 var50)))
(assert (= var50 (Concat var51 var52)))
(assert (= var52 (Concat var53 var54)))
(assert (= var54 (Concat var55 var56)))
(assert (= var56 (Concat var57 var58)))
(assert (= var58 (Concat var59 var60)))
(assert (= var0 "solution"))
(assert (= "u" (CharAt var10 800)))
(assert (= "t" (CharAt var54 335)))
(assert (= "G" (CharAt var22 343)))
(assert (= "q" (CharAt var26 461)))
(assert (= "%" (CharAt var0 221)))
(assert (= "m" (CharAt var25 208)))
(assert (= "K" (CharAt var28 470)))
(assert (= "$" (CharAt var44 30)))
(assert (= "6" (CharAt var28 412)))
(assert (= "n" (CharAt var26 481)))
(assert (= "U" (CharAt var15 939)))
(assert (= "s" (CharAt var32 160)))
(assert (= "," (CharAt var5 311)))
(assert (= "j" (CharAt var5 502)))
(assert (= "a" (CharAt var10 495)))
(assert (= "4" (CharAt var3 874)))
(assert (= "l" (CharAt var8 553)))
(assert (= "F" (CharAt var22 463)))
(assert (= "A" (CharAt var41 433)))
(assert (= "X" (CharAt var41 447)))
(assert (= "x" (CharAt var12 232)))
(assert (= "E" (CharAt var20 36)))
(assert (= "1" (CharAt var60 950)))
(assert (= "b" (CharAt var39 794)))
(assert (= "=" (CharAt var6 420)))
(assert (= "'" (CharAt var52 363)))
(assert (= "I" (CharAt var48 796)))
(assert (= "_" (CharAt var18 605)))
(assert (= "]" (CharAt var8 643)))
(assert (= "j" (CharAt var3 393)))
(assert (= "K" (CharAt var38 364)))
(assert (= "\\" (CharAt var45 618)))
(assert (= "b" (CharAt var22 896)))
(assert (= "+" (CharAt var16 833)))
(assert (= "z" (CharAt var32 741)))
(assert (= "4" (CharAt var24 998)))
(assert (= "$" (CharAt var16 0)))
(assert (= "Q" (CharAt var2 265)))
(assert (= "Z" (CharAt var12 11)))
(assert (= "\"" (CharAt var40 284)))
(assert (= "y" (CharAt var12 3)))
(assert (= "h" (CharAt var35 802)))
(assert (= "o" (CharAt var54 339)))
(assert (= ";" (CharAt var19 77)))
(assert (= "V" (CharAt var52 252)))
(assert (= "o" (CharAt var5 870)))
(assert (= "P" (CharAt var14 562)))
(assert (= "<" (CharAt var50 516)))
(assert (= "x" (CharAt var7 650)))
(assert (= "L" (CharAt var21 837)))
(assert (= "\\" (CharAt var30 330)))
(assert (= "u" (CharAt var2 11)))
(assert (= "-" (CharAt var27 286)))
(assert (= "%" (CharAt var40 266)))
(assert (= "#" (CharAt var6 198)))
(assert (= "4" (CharAt var44 35)))
(assert (= "P" (CharAt var33 747)))
(assert (= "O" (CharAt var7 781)))
(assert (= "I" (CharAt var42 657)))
(assert (= "4" (CharAt var55 66)))
(assert (= "`" (CharAt var25 534)))
(assert (= "d" (CharAt var20 341)))
(assert (= "'" (CharAt var55 673)))
(assert (= "E" (CharAt var10 42)))
(assert (= "_" (CharAt var52 31)))
(assert (= "*" (CharAt var19 614)))
(assert (= "L" (CharAt var55 695)))
(assert (= "x" (CharAt var46 56)))
(assert (= "k" (CharAt var16 298)))
(assert (= "," (CharAt var57 538)))
(assert (= "\"" (CharAt var13 835)))
(assert (= "-" (CharAt var2 704)))
(assert (= "k" (CharAt var54 171)))
(assert (= "+" (CharAt var40 644)))
(assert (= "7" (CharAt var21 347)))
(assert (= "\"" (CharAt var50 836)))
(assert (= "X" (CharAt var26 994)))
(assert (= "X" (CharAt var4 551)))
(assert (= "N" (CharAt var50 920)))
(assert (= "-" (CharAt var10 262)))
(assert (= "$" (CharAt var20 761)))
(assert (= "|" (CharAt var10 72)))
(assert (= "&" (CharAt var17 199)))
(assert (= "B" (CharAt var4 90)))
(assert (= "M" (CharAt var38 512)))
(assert (= "P" (CharAt var24 657)))
(assert (= "n" (CharAt var21 354)))
(assert (= "o" (CharAt var32 80)))
(assert (= "0" (CharAt var10 373)))
(assert (= "]" (CharAt var9 457)))
(assert (= "0" (CharAt var6 850)))
(assert (= "i" (CharAt var39 411)))
(assert (= "6" (CharAt var39 520)))
(assert (= "S" (CharAt var60 375)))
(assert (= "U" (CharAt var34 651)))
(assert (= "@" (CharAt var44 372)))
(assert (= "," (CharAt var8 811)))
(assert (= "k" (CharAt var55 997)))
(assert (= "H" (CharAt var45 470)))
(assert (= "O" (CharAt var42 810)))
(assert (= ";" (CharAt var4 711)))
(assert (= "w" (CharAt var2 468)))
(assert (= "F" (CharAt var4 284)))
(assert (= "!" (CharAt var35 684)))
(assert (= ":" (CharAt var10 312)))
(assert (= "y" (CharAt var17 852)))
(assert (= "G" (CharAt var14 453)))
(assert (= "6" (CharAt var17 221)))
(assert (= "1" (CharAt var39 653)))
(assert (= "," (CharAt var26 787)))
(assert (= "M" (CharAt var18 87)))
(assert (= "x" (CharAt var36 657)))
(assert (= "<" (CharAt var14 666)))
(assert (= "j" (CharAt var43 885)))
(assert (= "&" (CharAt var51 993)))
(assert (= "n" (CharAt var40 582)))
(assert (= "c" (CharAt var0 368)))
(assert (= "?" (CharAt var15 765)))
(assert (= "b" (CharAt var57 363)))
(assert (= "E" (CharAt var11 233)))
(assert (= "z" (CharAt var13 224)))
(assert (= "u" (CharAt var28 405)))
(assert (= "j" (CharAt var7 305)))
(assert (= "y" (CharAt var11 523)))
(assert (= "E" (CharAt var38 689)))
(assert (= "x" (CharAt var29 469)))
(assert (= "U" (CharAt var22 5)))
(assert (= "T" (CharAt var45 393)))
(assert (= "~" (CharAt var26 77)))
(assert (= "Y" (CharAt var50 330)))
(assert (= "A" (CharAt var33 772)))
(assert (= "k" (CharAt var8 28)))
(assert (= ":" (CharAt var35 564)))
(assert (= "&" (CharAt var60 327)))
(assert (= ";" (CharAt var48 190)))
(assert (= "{" (CharAt var32 220)))
(assert (= "j" (CharAt var15 460)))
(assert (= "'" (CharAt var11 131)))
(assert (= "n" (CharAt var5 860)))
(assert (= "}" (CharAt var31 480)))
(assert (= "E" (CharAt var19 882)))
(assert (= "," (CharAt var51 919)))
(assert (= "A" (CharAt var59 363)))
(assert (= "E" (CharAt var47 712)))
(assert (= "!" (CharAt var34 222)))
(assert (= "P" (CharAt var39 864)))
(assert (= ">" (CharAt var52 405)))
(assert (= "M" (CharAt var0 941)))
(assert (= "X" (CharAt var0 111)))
(assert (= "p" (CharAt var36 326)))
(assert (= "E" (CharAt var46 805)))
(assert (= "`" (CharAt var39 582)))
(assert (= "(" (CharAt var4 619)))
(assert (= "r" (CharAt var14 543)))
(assert (= "E" (CharAt var50 406)))
(assert (= "]" (CharAt var19 280)))
(assert (= "b" (CharAt var24 977)))
(assert (= "8" (CharAt var31 477)))
(assert (= "r" (CharAt var22 894)))
(assert (= "?" (CharAt var47 217)))
(assert (= "y" (CharAt var41 731)))
(check-sat)
(get-model)